c --- [ banner ] -------------------------------------------------------------
c 
c CaDiCaL SAT Solver
c Copyright (c) 2016-2024
c A. Biere, M. Fleury, N. Froleyks, K. Fazekas, F. Pollitt, T. Faller
c JKU Linz, University of Freiburg, TU Wien
c 
c Version 2.1.3 f13d74439a5b5c963ac5b02d05ce93a8098018b8
c g++ (Gentoo 12.3.1_p20230526 p2) 12.3.1 20230526 -Wall -Wextra -O3 -DNDEBUG
c Thu Apr 10 08:26:21 EDT 2025 Linux narval2.narval.calcul.quebec 4.18.0-553.40.1.el8_10.x86_64 x86_64
c 
c --- [ parsing input ] ------------------------------------------------------
c 
c reading DIMACS file from 'cnfs//op_complete_50.cnf'
c opening file to read 'cnfs//op_complete_50.cnf'
c found 'p cnf 2450 118875' header
c parsed 118875 clauses in 0.04 seconds process time
c 
c --- [ options ] ------------------------------------------------------------
c 
c all options are set to their default value
c 
c --- [ solving ] ------------------------------------------------------------
c 
c time measured in process time since initialization
c 
c  seconds  reductions  redundant  irredundant
c         MB    restarts       trail      variables
c          level   conflicts       glue        remaining
c 
c *  0.04 15  0 0   0    0    0  0% 0 118875 2450 100%
c {  0.04 16  0 0   0    0    0  0% 0 118875 2450 100%
c -  0.05 16 84 1   1  310   22  7% 18 118875 2450 100%
c -  0.07 22 101 2   3  978  173 11% 21 118875 2450 100%
c }  0.07 22 102 2   3 1024  178 11% 20 118875 2450 100%
c [  0.07 22  0 2   3 1024  178  0% 0 118875 2450 100%
c O  0.07 22 47 2   3 1025  178  8% 0 118875 2450 100%
c -  0.09 22 46 3   3 1946  653 13% 24 118875 2450 100%
c ]  0.12 22 50 3   4 3024 1244 13% 27 118875 2450 100%
c {  0.12 22 102 3   4 3024 1244 11% 20 118875 2450 100%
c F  0.12 22 109 3   4 3028 1248 11% 21 118875 2450 100%
c -  0.13 22 98 4  10 3248 1188 12% 15 118875 2450 100%
c -  0.15 22 96 5  55 4879 1106 12% 17 118875 2450 100%
c #  0.20 22 124 5  65 6056 1358 17% 16 118875 2450 100%
c -  0.22 21 123 6 115 6830 1111 17% 17 118875 2450 100%
c }  0.22 21 124 6 116 7095 1171 17% 17 118875 2450 100%
c [  0.22 21 50 6 116 7095 1171 13% 27 118875 2450 100%
c -  0.27 26 79 7 117 9089 2065 14% 25 118875 2450 100%
c I  0.28 26 76 7 118 10057 2749 13% 26 118875 2450 100%
c w  0.36 26 79 7 118 11202 3400 13% 25 118875 2450 100%
c 
c  seconds  reductions   redundant   irredundant
c         MB    restarts        trail       variables
c          level    conflicts       glue         remaining
c 
c ^  0.46 26 79 7 118 11202 3400 13% 25 118875 2450 100%
c -  0.48 26 81 8 119 11672 2798 13% 24 118875 2450 100%
c -  0.52 26 71 9 120 14575 3442 11% 21 118875 2450 100%
c B  0.54 26 69 9 121 15061 3771 11% 21 118875 2450 100%
c ]  0.54 26 69 9 121 15107 3805 11% 21 118875 2450 100%
c {  0.54 26 124 9 121 15107 3805 17% 17 118875 2450 100%
c -  0.58 21 87 10 142 17803 3729 15% 15 118875 2450 100%
c B  0.61 21 56 10 142 21062 5789 11% 14 118875 2450 100%
c -  0.62 26 56 11 145 21351 4029 11% 14 118875 2450 100%
c -  0.66 26 58 12 205 25221 3709 11% 13 118875 2450 100%
c W  0.73 26 65 12 274 28071 5261 13% 12 118875 2450 100%
c i  0.74 26 64 12 280 29188 5926 13% 12 118875 2448 100%
c i  0.75 26 64 12 288 29320 6001 13% 12 118875 2444 100%
c }  0.75 26 64 12 288 29322 6001 13% 12 118875 2438 100%
c 0  0.75 26 64 12 288 29322 6001 13% 12 118875 2438 100%
c 
c --- [ result ] -------------------------------------------------------------
c 
s UNSATISFIABLE
c 
c --- [ run-time profiling ] -------------------------------------------------
c 
c process time taken by individual solving procedures
c (percentage relative to process time for solving)
c 
c         0.50   70.45% search
c         0.25   35.63% unstable
c         0.21   29.54% simplify
c         0.21   29.26% stable
c         0.08   12.06% elim
c         0.04    6.22% vivify
c         0.04    5.92% parse
c         0.04    5.32% walk
c         0.02    3.37% subsume
c         0.02    3.36% ternary
c         0.01    2.06% probe
c         0.00    0.23% lucky
c   =================================
c         0.70   94.34% solve
c 
c last line shows process time for solving
c (percentage relative to total process time)
c 
c --- [ statistics ] ---------------------------------------------------------
c 
c chronological:              8043        27.43 %  of conflicts
c conflicts:                 29322     41686.21    per second
c decisions:                102054    145087.13    per second
c fixed:                        12         0.49 %  of all variables
c learned:                   20337        69.36 %  per conflict
c learned_lits:             775571       100.00 %  learned literals
c minimized:                     0         0.00 %  learned literals
c shrunken:                  66334         8.55 %  learned literals
c minishrunken:              25308         3.26 %  learned literals
c otfs:                       2610         8.90 %  of conflict
c propagations:             922380         1.31 M  per second
c reduced:                    9840        33.56 %  per conflict
c rephased:                      7      4188.86    interval
c restarts:                    288       101.81    interval
c stabilizing:                   2        34.08 %  of conflicts
c subsumed:                   4557         3.27 %  of all clauses
c strengthened:               2569         1.85 %  of all clauses
c vivified:                     23         0.02 %  of all clauses
c walked:                        1     29322.00    interval
c 
c seconds are measured in process time for solving
c 
c --- [ resources ] ----------------------------------------------------------
c 
c total process time since initialization:         0.75    seconds
c total real time since initialization:            0.90    seconds
c maximum resident set size of process:           31.23    MB
c 
c --- [ shutting down ] ------------------------------------------------------
c 
c exit 20
